Route #1: 21 85 54 13 40 31 63 57 29
Route #2: 101 77 83 2 17 69 105 64 94 82
Route #3: 96 45 100 51 76 15 44 5
Route #4: 97 49 99 11 74 34 72
Route #5: 53 103 28 93 43 87 60
Route #6: 14 58 88 91 36 8 48 67
Route #7: 1 104 12 9 84 75 7
Route #8: 52 92 102 24 90 26 62
Route #9: 33 22
Route #10: 66 46 71 79 37 27 19 78
Route #11: 86 18 41 10 16 20 56
Route #12: 59 89 30 42 23 3 32 73 35
Route #13: 39 50 81 6 70 4 98 55
Route #14: 25 47 61 80 65 38 95 68
Cost 26375
